n = 23;
budget = 200000;
groceries = [|24,144,48,160,2173|243,306,81,112,1362|40,150,85,61,1078|117,9,9,87,3963|119,14,28,132,1189|126,210,203,150,3853|96,102,18,165,2916|20,20,130,104,3543|104,72,208,78,2310|56,416,40,63,2984|60,265,125,175,1718|40,25,20,138,3206|18,126,207,105,2067|50,265,30,158,2988|63,49,490,135,3000|5,125,165,181,1447|28,161,63,161,1703|15,15,275,92,3378|70,200,790,172,3069|80,160,584,101,2285|108,306,54,133,2673|72,168,6,174,1140|16,560,72,72,1800|];
requirements = [|912,1104|4800,4800|1368,1488|];
offset = [|91,220|2400,3120|342,520|];
variety = 31;